projected/problems_b25_r0_d7_m100_s666/_DIMACS/b25_d7_r0_s666_061.cnf
p cnf 336 653 24
c p show 1 2 3 4 5 6 7 8 9 10 11 12 13 14 15 16 17 18 19 20 21 22 23 24
-25 9 -22 0
-26 8 -6 0
-27 6 -8 0
-28 27 0
-28 26 0
-29 28 0
-29 25 0
-30 10 0
-30 -19 0
-31 -2 13 0
-32 31 0
-32 30 0
-33 32 0
-33 29 0
-34 -5 -22 0
-35 -1 22 0
-36 -22 1 0
-37 36 0
-37 35 0
-38 37 34 0
-39 22 0
-39 -13 0
-40 19 -3 0
-41 3 -19 0
-42 41 0
-42 40 0
-43 42 39 0
-44 43 38 0
-45 44 33 0
-46 15 0
-46 -11 0
-47 6 17 0
-48 47 0
-48 46 0
-49 -6 0
-49 -17 0
-50 -15 11 0
-51 50 0
-51 49 0
-52 51 48 0
-53 -16 0
-53 10 0
-54 -10 0
-54 16 0
-55 54 53 0
-56 -17 0
-56 -24 0
-57 24 0
-57 17 0
-58 57 56 0
-59 58 55 0
-60 59 0
-60 52 0
-61 -18 15 0
-62 21 -9 0
-63 62 61 0
-64 -21 0
-64 9 0
-65 18 0
-65 -15 0
-66 65 64 0
-67 66 0
-67 63 0
-68 22 16 0
-69 12 0
-69 3 0
-70 69 0
-70 68 0
-71 70 67 0
-72 71 0
-72 60 0
-73 72 45 0
-74 5 8 0
-75 16 23 0
-76 75 74 0
-77 4 0
-77 8 0
-78 17 0
-78 -6 0
-79 78 77 0
-80 79 0
-80 76 0
-81 -13 0
-81 -14 0
-82 -3 0
-82 13 0
-83 82 81 0
-84 3 -13 0
-85 13 14 0
-86 85 84 0
-87 86 0
-87 83 0
-88 -15 12 0
-89 9 0
-90 89 0
-90 88 0
-91 90 0
-91 87 0
-92 91 80 0
-93 17 0
-93 -4 0
-94 -10 0
-94 17 0
-95 -17 0
-95 10 0
-96 95 94 0
-97 96 93 0
-98 16 15 0
-99 10 -21 0
-100 99 98 0
-101 100 97 0
-102 -2 9 0
-103 3 0
-103 -20 0
-104 103 102 0
-105 5 22 0
-106 21 0
-107 106 0
-107 105 0
-108 107 104 0
-109 108 0
-109 101 0
-110 109 0
-110 92 0
-111 110 73 0
-112 -13 -15 0
-113 15 3 0
-114 113 0
-114 112 0
-115 -15 0
-115 -3 0
-116 13 0
-116 15 0
-117 116 0
-117 115 0
-118 117 114 0
-119 4 0
-119 -20 0
-120 8 0
-120 7 0
-121 120 0
-121 119 0
-122 121 0
-122 118 0
-123 2 13 0
-124 20 -18 0
-125 124 0
-125 123 0
-126 -20 0
-126 18 0
-127 -2 0
-127 -13 0
-128 127 0
-128 126 0
-129 128 125 0
-130 -19 9 0
-131 3 0
-131 18 0
-132 -18 0
-132 -3 0
-133 132 131 0
-134 133 0
-134 130 0
-135 134 129 0
-136 135 122 0
-137 7 0
-137 -24 0
-138 8 0
-138 -10 0
-139 138 137 0
-140 -7 1 0
-141 3 0
-141 -17 0
-142 141 140 0
-143 142 139 0
-144 -6 17 0
-145 -10 0
-145 18 0
-146 145 144 0
-147 -22 4 0
-148 -4 22 0
-149 148 0
-149 147 0
-150 -6 -17 0
-151 150 0
-151 149 0
-152 151 146 0
-153 152 143 0
-154 153 0
-154 136 0
-155 -21 -16 0
-156 8 -18 0
-157 156 155 0
-158 19 0
-158 2 0
-159 4 -19 0
-160 19 -4 0
-161 160 0
-161 159 0
-162 161 158 0
-163 162 0
-163 157 0
-164 -18 0
-164 -2 0
-165 15 0
-165 -7 0
-166 165 0
-166 164 0
-167 -8 0
-167 -24 0
-168 -19 0
-168 16 0
-169 168 0
-169 167 0
-170 169 166 0
-171 170 163 0
-172 -20 13 0
-173 22 -20 0
-174 173 172 0
-175 3 -1 0
-176 145 0
-176 175 0
-177 10 -18 0
-178 -3 0
-178 1 0
-179 178 0
-179 177 0
-180 179 176 0
-181 180 174 0
-182 -12 0
-182 19 0
-183 -1 0
-183 -7 0
-184 183 182 0
-185 -6 0
-185 -21 0
-186 23 13 0
-187 186 185 0
-188 187 0
-188 184 0
-189 188 181 0
-190 189 171 0
-191 190 0
-191 154 0
-192 191 0
-192 111 0
-193 115 116 0
-194 112 113 0
-195 194 0
-195 193 0
-196 -4 20 0
-197 -8 -7 0
-198 197 196 0
-199 198 195 0
-200 126 127 0
-201 123 124 0
-202 201 0
-202 200 0
-203 19 0
-203 -9 0
-204 -3 -18 0
-205 18 3 0
-206 205 0
-206 204 0
-207 206 203 0
-208 207 0
-208 202 0
-209 208 0
-209 199 0
-210 -7 24 0
-211 -8 10 0
-212 211 0
-212 210 0
-213 7 0
-213 -1 0
-214 -3 17 0
-215 214 0
-215 213 0
-216 215 0
-216 212 0
-217 6 0
-217 -17 0
-218 177 0
-218 217 0
-219 22 0
-219 -4 0
-220 4 0
-220 -22 0
-221 220 219 0
-222 6 0
-222 17 0
-223 222 221 0
-224 223 0
-224 218 0
-225 224 0
-225 216 0
-226 225 209 0
-227 21 0
-227 16 0
-228 -8 0
-228 18 0
-229 228 0
-229 227 0
-230 -19 -2 0
-231 -4 0
-231 19 0
-232 -19 0
-232 4 0
-233 232 231 0
-234 233 0
-234 230 0
-235 234 229 0
-236 18 2 0
-237 -15 7 0
-238 237 236 0
-239 8 24 0
-240 19 -16 0
-241 240 239 0
-242 241 0
-242 238 0
-243 242 0
-243 235 0
-244 20 0
-244 -13 0
-245 -22 0
-245 20 0
-246 245 0
-246 244 0
-247 177 178 0
-248 175 145 0
-249 248 0
-249 247 0
-250 249 0
-250 246 0
-251 12 -19 0
-252 1 7 0
-253 252 0
-253 251 0
-254 6 21 0
-255 -23 0
-255 -13 0
-256 255 0
-256 254 0
-257 256 253 0
-258 257 0
-258 250 0
-259 258 0
-259 243 0
-260 259 226 0
-261 -9 0
-261 22 0
-262 -8 0
-262 6 0
-263 -6 0
-263 8 0
-264 263 262 0
-265 264 261 0
-266 -10 19 0
-267 2 0
-267 -13 0
-268 267 266 0
-269 268 265 0
-270 5 0
-270 22 0
-271 1 0
-271 -22 0
-272 22 0
-272 -1 0
-273 272 271 0
-274 273 0
-274 270 0
-275 -22 13 0
-276 -19 0
-276 3 0
-277 -3 0
-277 19 0
-278 277 276 0
-279 278 0
-279 275 0
-280 279 0
-280 274 0
-281 280 0
-281 269 0
-282 49 50 0
-283 46 47 0
-284 283 0
-284 282 0
-285 16 -10 0
-286 10 -16 0
-287 286 0
-287 285 0
-288 17 24 0
-289 -24 -17 0
-290 289 0
-290 288 0
-291 290 0
-291 287 0
-292 291 284 0
-293 64 0
-293 65 0
-294 61 0
-294 62 0
-295 294 293 0
-296 -22 0
-296 -16 0
-297 -12 -3 0
-298 297 296 0
-299 298 0
-299 295 0
-300 299 292 0
-301 300 0
-301 281 0
-302 -5 0
-302 -8 0
-303 -16 0
-303 -23 0
-304 303 0
-304 302 0
-305 -4 -8 0
-306 -17 6 0
-307 306 0
-307 305 0
-308 307 304 0
-309 84 0
-309 85 0
-310 81 0
-310 82 0
-311 310 309 0
-312 15 0
-312 -12 0
-313 -9 0
-314 313 312 0
-315 314 311 0
-316 315 0
-316 308 0
-317 -17 4 0
-318 10 -17 0
-319 17 -10 0
-320 319 0
-320 318 0
-321 320 0
-321 317 0
-322 -16 0
-322 -15 0
-323 -10 0
-323 21 0
-324 323 0
-324 322 0
-325 324 0
-325 321 0
-326 2 0
-326 -9 0
-327 -3 20 0
-328 327 0
-328 326 0
-329 -5 0
-329 -22 0
-330 -21 0
-331 330 329 0
-332 331 0
-332 328 0
-333 332 325 0
-334 333 316 0
-335 334 0
-335 301 0
-336 335 0
-336 260 0
336 192 0
-113 -115 0
-112 -116 0
-116 -112 0
-195 -118 0
-118 -195 0
-196 -119 0
-197 -120 0
-198 -121 0
-121 -198 0
-122 -199 0
-124 -126 0
-127 -123 0
-202 -129 0
-129 -202 0
-130 -203 0
-203 -130 0
-206 -133 0
-207 -134 0
-134 -207 0
-135 -208 0
-136 -209 0
-137 -210 0
-210 -137 0
-211 -138 0
-212 -139 0
-140 -213 0
-213 -140 0
-214 -141 0
-215 -142 0
-216 -143 0
-143 -216 0
-144 -217 0
-217 -144 0
-145 -177 0
-177 -145 0
-218 -146 0
-149 -221 0
-150 -222 0
-151 -223 0
-223 -151 0
-224 -152 0
-152 -224 0
-153 -225 0
-154 -226 0
-155 -227 0
-156 -228 0
-157 -229 0
-158 -230 0
-230 -158 0
-161 -233 0
-233 -161 0
-234 -162 0
-162 -234 0
-163 -235 0
-236 -164 0
-164 -236 0
-237 -165 0
-165 -237 0
-166 -238 0
-239 -167 0
-240 -168 0
-241 -169 0
-169 -241 0
-170 -242 0
-171 -243 0
-172 -244 0
-245 -173 0
-173 -245 0
-174 -246 0
-178 -175 0
-249 -180 0
-180 -249 0
-181 -250 0
-182 -251 0
-251 -182 0
-252 -183 0
-253 -184 0
-184 -253 0
-254 -185 0
-186 -255 0
-255 -186 0
-256 -187 0
-187 -256 0
-188 -257 0
-189 -258 0
-190 -259 0
-191 -260 0
-25 -261 0
-28 -264 0
-29 -265 0
-266 -30 0
-30 -266 0
-267 -31 0
-31 -267 0
-32 -268 0
-33 -269 0
-270 -34 0
-37 -273 0
-273 -37 0
-274 -38 0
-275 -39 0
-39 -275 0
-42 -278 0
-43 -279 0
-279 -43 0
-280 -44 0
-44 -280 0
-45 -281 0
-47 -49 0
-46 -50 0
-50 -46 0
-284 -52 0
-52 -284 0
-287 -55 0
-290 -58 0
-291 -59 0
-59 -291 0
-60 -292 0
-292 -60 0
-62 -64 0
-64 -62 0
-65 -61 0
-61 -65 0
-67 -295 0
-295 -67 0
-68 -296 0
-296 -68 0
-69 -297 0
-297 -69 0
-298 -70 0
-299 -71 0
-300 -72 0
-72 -300 0
-73 -301 0
-301 -73 0
-74 -302 0
-303 -75 0
-75 -303 0
-76 -304 0
-77 -305 0
-306 -78 0
-78 -306 0
-79 -307 0
-80 -308 0
-308 -80 0
-84 -82 0
-81 -85 0
-87 -311 0
-311 -87 0
-88 -312 0
-313 -89 0
-89 -313 0
-90 -314 0
-314 -90 0
-315 -91 0
-316 -92 0
-92 -316 0
-317 -93 0
-320 -96 0
-321 -97 0
-97 -321 0
-322 -98 0
-99 -323 0
-323 -99 0
-324 -100 0
-100 -324 0
-101 -325 0
-325 -101 0
-102 -326 0
-326 -102 0
-103 -327 0
-327 -103 0
-328 -104 0
-104 -328 0
-329 -105 0
-105 -329 0
-106 -330 0
-107 -331 0
-108 -332 0
-332 -108 0
-333 -109 0
-109 -333 0
-110 -334 0
-334 -110 0
-335 -111 0
