projected/problems_b25_r0_d7_m100_s666/b25_d7_r0_s666_061.smt2
(set-logic QF_UF)
(declare-fun A0 () Bool)
(declare-fun A1 () Bool)
(declare-fun A2 () Bool)
(declare-fun A3 () Bool)
(declare-fun A4 () Bool)
(declare-fun A5 () Bool)
(declare-fun A6 () Bool)
(declare-fun A7 () Bool)
(declare-fun A9 () Bool)
(declare-fun A10 () Bool)
(declare-fun A11 () Bool)
(declare-fun A12 () Bool)
(declare-fun A13 () Bool)
(declare-fun A14 () Bool)
(declare-fun A15 () Bool)
(declare-fun A16 () Bool)
(declare-fun A17 () Bool)
(declare-fun A18 () Bool)
(declare-fun A19 () Bool)
(declare-fun A20 () Bool)
(declare-fun A21 () Bool)
(declare-fun A22 () Bool)
(declare-fun A23 () Bool)
(declare-fun A24 () Bool)
(assert (let ((.def_0 (or A15 A2))) (let ((.def_1 (not A15))) (let ((.def_2 (not A13))) (let ((.def_3 (or .def_2 .def_1))) (let ((.def_4 (not .def_3))) (let ((.def_5 (= .def_4 .def_0))) (let ((.def_6 (not .def_5))) (let ((.def_7 (not A3))) (let ((.def_8 (or .def_7 A20))) (let ((.def_9 (not A6))) (let ((.def_10 (not A7))) (let ((.def_11 (or .def_10 .def_9))) (let ((.def_12 (or .def_11 .def_8))) (let ((.def_13 (not .def_12))) (let ((.def_14 (and .def_13 .def_6))) (let ((.def_15 (not A18))) (let ((.def_16 (or A20 .def_15))) (let ((.def_17 (not A1))) (let ((.def_18 (and .def_17 .def_2))) (let ((.def_19 (= .def_18 .def_16))) (let ((.def_20 (not .def_19))) (let ((.def_21 (not A19))) (let ((.def_22 (or .def_21 A9))) (let ((.def_23 (not .def_22))) (let ((.def_24 (= .def_15 A2))) (let ((.def_25 (or .def_24 .def_23))) (let ((.def_26 (not .def_25))) (let ((.def_27 (or .def_26 .def_20))) (let ((.def_28 (or .def_27 .def_14))) (let ((.def_29 (not A24))) (let ((.def_30 (and A6 .def_29))) (let ((.def_31 (not .def_30))) (let ((.def_32 (or .def_10 A10))) (let ((.def_33 (and .def_32 .def_31))) (let ((.def_34 (or .def_9 A0))) (let ((.def_35 (not .def_34))) (let ((.def_36 (not A2))) (let ((.def_37 (or .def_36 A17))) (let ((.def_38 (and .def_37 .def_35))) (let ((.def_39 (and .def_38 .def_33))) (let ((.def_40 (not .def_39))) (let ((.def_41 (not A5))) (let ((.def_42 (or .def_41 A17))) (let ((.def_43 (not .def_42))) (let ((.def_44 (not A10))) (let ((.def_45 (and .def_44 A18))) (let ((.def_46 (not .def_45))) (let ((.def_47 (and .def_46 .def_43))) (let ((.def_48 (= A3 A22))) (let ((.def_49 (not A17))) (let ((.def_50 (or .def_41 .def_49))) (let ((.def_51 (and .def_50 .def_48))) (let ((.def_52 (not .def_51))) (let ((.def_53 (and .def_52 .def_47))) (let ((.def_54 (not .def_53))) (let ((.def_55 (or .def_54 .def_40))) (let ((.def_56 (and .def_55 .def_28))) (let ((.def_57 (not A16))) (let ((.def_58 (not A21))) (let ((.def_59 (or .def_58 .def_57))) (let ((.def_60 (or A7 .def_15))) (let ((.def_61 (or .def_60 .def_59))) (let ((.def_62 (and A19 A1))) (let ((.def_63 (not .def_62))) (let ((.def_64 (= .def_21 .def_7))) (let ((.def_65 (not .def_64))) (let ((.def_66 (and .def_65 .def_63))) (let ((.def_67 (not .def_66))) (let ((.def_68 (and .def_67 .def_61))) (let ((.def_69 (or A18 A1))) (let ((.def_70 (not .def_69))) (let ((.def_71 (or .def_1 A6))) (let ((.def_72 (not .def_71))) (let ((.def_73 (and .def_72 .def_70))) (let ((.def_74 (or A7 A24))) (let ((.def_75 (or A19 .def_57))) (let ((.def_76 (or .def_75 .def_74))) (let ((.def_77 (not .def_76))) (let ((.def_78 (or .def_77 .def_73))) (let ((.def_79 (or .def_78 .def_68))) (let ((.def_80 (not A20))) (let ((.def_81 (or .def_80 A13))) (let ((.def_82 (not A22))) (let ((.def_83 (and .def_82 A20))) (let ((.def_84 (not .def_83))) (let ((.def_85 (or .def_84 .def_81))) (let ((.def_86 (and .def_36 A0))) (let ((.def_87 (= .def_86 .def_45))) (let ((.def_88 (not .def_87))) (let ((.def_89 (or .def_88 .def_85))) (let ((.def_90 (not A12))) (let ((.def_91 (and .def_90 A19))) (let ((.def_92 (not .def_91))) (let ((.def_93 (or A0 A6))) (let ((.def_94 (and .def_93 .def_92))) (let ((.def_95 (not .def_94))) (let ((.def_96 (or A5 A21))) (let ((.def_97 (or A23 A13))) (let ((.def_98 (not .def_97))) (let ((.def_99 (and .def_98 .def_96))) (let ((.def_100 (not .def_99))) (let ((.def_101 (and .def_100 .def_95))) (let ((.def_102 (or .def_101 .def_89))) (let ((.def_103 (or .def_102 .def_79))) (let ((.def_104 (and .def_103 .def_56))) (let ((.def_105 (or A9 .def_82))) (let ((.def_106 (= .def_41 .def_10))) (let ((.def_107 (and .def_106 .def_105))) (let ((.def_108 (or .def_44 A19))) (let ((.def_109 (not .def_108))) (let ((.def_110 (and A1 .def_2))) (let ((.def_111 (not .def_110))) (let ((.def_112 (and .def_111 .def_109))) (let ((.def_113 (and .def_112 .def_107))) (let ((.def_114 (and A4 A22))) (let ((.def_115 (= A22 A0))) (let ((.def_116 (not .def_115))) (let ((.def_117 (and .def_116 .def_114))) (let ((.def_118 (or .def_82 A13))) (let ((.def_119 (not .def_118))) (let ((.def_120 (= .def_36 .def_21))) (let ((.def_121 (or .def_120 .def_119))) (let ((.def_122 (not .def_121))) (let ((.def_123 (and .def_122 .def_117))) (let ((.def_124 (not .def_123))) (let ((.def_125 (or .def_124 .def_113))) (let ((.def_126 (or A5 A17))) (let ((.def_127 (not A11))) (let ((.def_128 (and A15 .def_127))) (let ((.def_129 (not .def_128))) (let ((.def_130 (= .def_129 .def_126))) (let ((.def_131 (not .def_130))) (let ((.def_132 (= .def_44 .def_57))) (let ((.def_133 (= A24 .def_49))) (let ((.def_134 (and .def_133 .def_132))) (let ((.def_135 (not .def_134))) (let ((.def_136 (and .def_135 .def_131))) (let ((.def_137 (not .def_136))) (let ((.def_138 (not A9))) (let ((.def_139 (or A21 .def_138))) (let ((.def_140 (not .def_139))) (let ((.def_141 (and A18 .def_1))) (let ((.def_142 (not .def_141))) (let ((.def_143 (= .def_142 .def_140))) (let ((.def_144 (not .def_143))) (let ((.def_145 (or A22 A16))) (let ((.def_146 (not .def_145))) (let ((.def_147 (and A12 A2))) (let ((.def_148 (not .def_147))) (let ((.def_149 (or .def_148 .def_146))) (let ((.def_150 (and .def_149 .def_144))) (let ((.def_151 (or .def_150 .def_137))) (let ((.def_152 (not .def_151))) (let ((.def_153 (or .def_152 .def_125))) (let ((.def_154 (not .def_153))) (let ((.def_155 (or A4 A7))) (let ((.def_156 (not A23))) (let ((.def_157 (and .def_57 .def_156))) (let ((.def_158 (not .def_157))) (let ((.def_159 (or .def_158 .def_155))) (let ((.def_160 (and A3 A7))) (let ((.def_161 (or .def_49 A5))) (let ((.def_162 (not .def_161))) (let ((.def_163 (or .def_162 .def_160))) (let ((.def_164 (and .def_163 .def_159))) (let ((.def_165 (not .def_164))) (let ((.def_166 (or A2 .def_2))) (let ((.def_167 (not A14))) (let ((.def_168 (and .def_2 .def_167))) (let ((.def_169 (= .def_168 .def_166))) (let ((.def_170 (not .def_169))) (let ((.def_171 (or .def_1 A12))) (let ((.def_172 (and .def_138 .def_138))) (let ((.def_173 (not .def_172))) (let ((.def_174 (and .def_173 .def_171))) (let ((.def_175 (not .def_174))) (let ((.def_176 (or .def_175 .def_170))) (let ((.def_177 (and .def_176 .def_165))) (let ((.def_178 (not .def_177))) (let ((.def_179 (or .def_49 A3))) (let ((.def_180 (= .def_49 .def_44))) (let ((.def_181 (and .def_180 .def_179))) (let ((.def_182 (not .def_181))) (let ((.def_183 (and .def_57 .def_1))) (let ((.def_184 (or A10 .def_58))) (let ((.def_185 (not .def_184))) (let ((.def_186 (and .def_185 .def_183))) (let ((.def_187 (not .def_186))) (let ((.def_188 (or .def_187 .def_182))) (let ((.def_189 (not .def_188))) (let ((.def_190 (or .def_17 A9))) (let ((.def_191 (not .def_190))) (let ((.def_192 (and A2 .def_80))) (let ((.def_193 (not .def_192))) (let ((.def_194 (and .def_193 .def_191))) (let ((.def_195 (not .def_194))) (let ((.def_196 (not A4))) (let ((.def_197 (and .def_196 .def_82))) (let ((.def_198 (not .def_197))) (let ((.def_199 (and A21 A21))) (let ((.def_200 (and .def_199 .def_198))) (let ((.def_201 (or .def_200 .def_195))) (let ((.def_202 (not .def_201))) (let ((.def_203 (or .def_202 .def_189))) (let ((.def_204 (not .def_203))) (let ((.def_205 (and .def_204 .def_178))) (let ((.def_206 (not .def_205))) (let ((.def_207 (and .def_206 .def_154))) (let ((.def_208 (= .def_207 .def_104))) (let ((.def_209 (not .def_208))) .def_209)))))))))))))))))))))))))))))))))))))))))))))))))))))))))))))))))))))))))))))))))))))))))))))))))))))))))))))))))))))))))))))))))))))))))))))))))))))))))))))))))))))))))))))))))))))))))))))))))))))))))))))))))))
(check-sat)
